; Options: -in -smt2
(set-option :produce-unsat-assumptions true)

(declare-fun start!2867 () Bool)

(assert start!2867)

(declare-fun b!15582 () Bool)

(declare-fun res!12178 () Bool)

(declare-fun e!8886 () Bool)

(assert (=> b!15582 (=> (not res!12178) (not e!8886))))

(declare-datatypes ((array!1317 0))(
  ( (array!1318 (arr!579 (Array (_ BitVec 32) (_ BitVec 32))) (size!579 (_ BitVec 32))) )
))
(declare-fun iq!146 () array!1317)

(declare-fun iqInv!0 (array!1317) Bool)

(assert (=> b!15582 (= res!12178 (iqInv!0 iq!146))))

(declare-fun b!15583 () Bool)

(declare-fun res!12182 () Bool)

(declare-fun e!8882 () Bool)

(assert (=> b!15583 (=> (not res!12182) (not e!8882))))

(declare-datatypes ((array!1319 0))(
  ( (array!1320 (arr!580 (Array (_ BitVec 32) (_ FloatingPoint 11 53))) (size!580 (_ BitVec 32))) )
))
(declare-fun q!79 () array!1319)

(declare-fun j!78 () (_ BitVec 32))

(declare-fun P!3 ((_ FloatingPoint 11 53)) Bool)

(assert (=> b!15583 (= res!12182 (P!3 (select (arr!580 q!79) (bvsub j!78 #b00000000000000000000000000000001))))))

(declare-fun lt!8109 () (_ FloatingPoint 11 53))

(declare-fun z!100 () (_ FloatingPoint 11 53))

(declare-fun b!15584 () Bool)

(declare-fun e!8883 () Bool)

(declare-fun jz!49 () (_ BitVec 32))

(declare-fun lt!8108 () (_ BitVec 32))

(declare-datatypes ((Unit!1609 0))(
  ( (Unit!1610) )
))
(declare-datatypes ((tuple4!426 0))(
  ( (tuple4!427 (_1!407 Unit!1609) (_2!407 array!1317) (_3!344 (_ BitVec 32)) (_4!213 (_ FloatingPoint 11 53))) )
))
(declare-fun computeModuloWhile!0 ((_ BitVec 32) array!1319 array!1317 (_ BitVec 32) (_ FloatingPoint 11 53)) tuple4!426)

(assert (=> b!15584 (= e!8883 (bvsgt (_3!344 (computeModuloWhile!0 jz!49 q!79 (array!1318 (store (arr!579 iq!146) (bvsub jz!49 j!78) (ite (fp.isNaN (fp.sub roundNearestTiesToEven z!100 (fp.mul roundNearestTiesToEven (fp #b0 #b10000010111 #b0000000000000000000000000000000000000000000000000000) lt!8109))) #b00000000000000000000000000000000 (ite (fp.gt (fp.sub roundNearestTiesToEven z!100 (fp.mul roundNearestTiesToEven (fp #b0 #b10000010111 #b0000000000000000000000000000000000000000000000000000) lt!8109)) ((_ to_fp 11 53) roundTowardZero #b01111111111111111111111111111111)) #b01111111111111111111111111111111 (ite (fp.lt (fp.sub roundNearestTiesToEven z!100 (fp.mul roundNearestTiesToEven (fp #b0 #b10000010111 #b0000000000000000000000000000000000000000000000000000) lt!8109)) ((_ to_fp 11 53) roundTowardZero #b10000000000000000000000000000000)) #b10000000000000000000000000000000 ((_ fp.to_sbv 32) roundTowardZero (fp.sub roundNearestTiesToEven z!100 (fp.mul roundNearestTiesToEven (fp #b0 #b10000010111 #b0000000000000000000000000000000000000000000000000000) lt!8109))))))) (size!579 iq!146)) lt!8108 (fp.add roundNearestTiesToEven (select (arr!580 q!79) (bvsub j!78 #b00000000000000000000000000000001)) lt!8109))) #b00000000000000000000000000000000))))

(declare-fun b!15585 () Bool)

(assert (=> b!15585 (= e!8882 e!8883)))

(declare-fun res!12180 () Bool)

(assert (=> b!15585 (=> (not res!12180) (not e!8883))))

(assert (=> b!15585 (= res!12180 (bvsgt lt!8108 #b00000000000000000000000000000000))))

(assert (=> b!15585 (= lt!8108 (bvsub j!78 #b00000000000000000000000000000001))))

(declare-fun b!15586 () Bool)

(declare-fun res!12176 () Bool)

(assert (=> b!15586 (=> (not res!12176) (not e!8886))))

(assert (=> b!15586 (= res!12176 (and (bvsle #b00000000000000000000000000000000 j!78) (bvsle j!78 jz!49) (fp.leq (fp #b0 #b00000000000 #b0000000000000000000000000000000000000000000000000000) z!100) (fp.leq z!100 (fp #b0 #b10000110001 #b0100000000000000000000010011111111111111111111111100))))))

(declare-fun b!15587 () Bool)

(declare-fun res!12181 () Bool)

(assert (=> b!15587 (=> (not res!12181) (not e!8882))))

(assert (=> b!15587 (= res!12181 (and (fp.leq (fp #b0 #b00000000000 #b0000000000000000000000000000000000000000000000000000) lt!8109) (fp.leq lt!8109 (fp #b0 #b10000011001 #b0100000000000000000000010000000000000000000000000000))))))

(declare-fun b!15589 () Bool)

(assert (=> b!15589 (= e!8886 e!8882)))

(declare-fun res!12183 () Bool)

(assert (=> b!15589 (=> (not res!12183) (not e!8882))))

(declare-fun QInt!0 ((_ BitVec 32)) Bool)

(assert (=> b!15589 (= res!12183 (QInt!0 (select (store (arr!579 iq!146) (bvsub jz!49 j!78) (ite (fp.isNaN (fp.sub roundNearestTiesToEven z!100 (fp.mul roundNearestTiesToEven (fp #b0 #b10000010111 #b0000000000000000000000000000000000000000000000000000) lt!8109))) #b00000000000000000000000000000000 (ite (fp.gt (fp.sub roundNearestTiesToEven z!100 (fp.mul roundNearestTiesToEven (fp #b0 #b10000010111 #b0000000000000000000000000000000000000000000000000000) lt!8109)) ((_ to_fp 11 53) roundTowardZero #b01111111111111111111111111111111)) #b01111111111111111111111111111111 (ite (fp.lt (fp.sub roundNearestTiesToEven z!100 (fp.mul roundNearestTiesToEven (fp #b0 #b10000010111 #b0000000000000000000000000000000000000000000000000000) lt!8109)) ((_ to_fp 11 53) roundTowardZero #b10000000000000000000000000000000)) #b10000000000000000000000000000000 ((_ fp.to_sbv 32) roundTowardZero (fp.sub roundNearestTiesToEven z!100 (fp.mul roundNearestTiesToEven (fp #b0 #b10000010111 #b0000000000000000000000000000000000000000000000000000) lt!8109))))))) (bvsub jz!49 j!78))))))

(assert (=> b!15589 (= lt!8109 ((_ to_fp 11 53) roundNearestTiesToEven (ite (fp.isNaN (fp.mul roundNearestTiesToEven (fp #b0 #b01111100111 #b0000000000000000000000000000000000000000000000000000) z!100)) #b00000000000000000000000000000000 (ite (fp.gt (fp.mul roundNearestTiesToEven (fp #b0 #b01111100111 #b0000000000000000000000000000000000000000000000000000) z!100) ((_ to_fp 11 53) roundTowardZero #b01111111111111111111111111111111)) #b01111111111111111111111111111111 (ite (fp.lt (fp.mul roundNearestTiesToEven (fp #b0 #b01111100111 #b0000000000000000000000000000000000000000000000000000) z!100) ((_ to_fp 11 53) roundTowardZero #b10000000000000000000000000000000)) #b10000000000000000000000000000000 ((_ fp.to_sbv 32) roundTowardZero (fp.mul roundNearestTiesToEven (fp #b0 #b01111100111 #b0000000000000000000000000000000000000000000000000000) z!100)))))))))

(declare-fun b!15590 () Bool)

(declare-fun res!12184 () Bool)

(assert (=> b!15590 (=> (not res!12184) (not e!8886))))

(declare-fun qInv!0 (array!1319) Bool)

(assert (=> b!15590 (= res!12184 (qInv!0 q!79))))

(declare-fun res!12177 () Bool)

(assert (=> start!2867 (=> (not res!12177) (not e!8886))))

(assert (=> start!2867 (= res!12177 (and (bvsle #b00000000000000000000000000000010 jz!49) (bvslt jz!49 #b00000000000000000000000000010011)))))

(assert (=> start!2867 e!8886))

(assert (=> start!2867 true))

(declare-fun array_inv!527 (array!1317) Bool)

(assert (=> start!2867 (array_inv!527 iq!146)))

(declare-fun array_inv!528 (array!1319) Bool)

(assert (=> start!2867 (array_inv!528 q!79)))

(declare-fun b!15588 () Bool)

(declare-fun res!12179 () Bool)

(assert (=> b!15588 (=> (not res!12179) (not e!8886))))

(assert (=> b!15588 (= res!12179 (bvsgt j!78 #b00000000000000000000000000000000))))

(assert (= (and start!2867 res!12177) b!15590))

(assert (= (and b!15590 res!12184) b!15586))

(assert (= (and b!15586 res!12176) b!15582))

(assert (= (and b!15582 res!12178) b!15588))

(assert (= (and b!15588 res!12179) b!15589))

(assert (= (and b!15589 res!12183) b!15587))

(assert (= (and b!15587 res!12181) b!15583))

(assert (= (and b!15583 res!12182) b!15585))

(assert (= (and b!15585 res!12180) b!15584))

(declare-fun m!21719 () Bool)

(assert (=> b!15589 m!21719))

(declare-fun m!21721 () Bool)

(assert (=> b!15589 m!21721))

(assert (=> b!15589 m!21721))

(declare-fun m!21723 () Bool)

(assert (=> b!15589 m!21723))

(declare-fun m!21725 () Bool)

(assert (=> b!15582 m!21725))

(declare-fun m!21727 () Bool)

(assert (=> b!15590 m!21727))

(declare-fun m!21729 () Bool)

(assert (=> b!15583 m!21729))

(assert (=> b!15583 m!21729))

(declare-fun m!21731 () Bool)

(assert (=> b!15583 m!21731))

(declare-fun m!21733 () Bool)

(assert (=> start!2867 m!21733))

(declare-fun m!21735 () Bool)

(assert (=> start!2867 m!21735))

(assert (=> b!15584 m!21719))

(assert (=> b!15584 m!21729))

(declare-fun m!21737 () Bool)

(assert (=> b!15584 m!21737))

(check-sat (not b!15589) (not b!15582) (not b!15584) (not b!15583) (not start!2867) (not b!15590))
(check-sat)
(get-model)

(declare-fun d!5561 () Bool)

(assert (=> d!5561 (= (P!3 (select (arr!580 q!79) (bvsub j!78 #b00000000000000000000000000000001))) (and (fp.leq (fp #b0 #b00000000000 #b0000000000000000000000000000000000000000000000000000) (select (arr!580 q!79) (bvsub j!78 #b00000000000000000000000000000001))) (fp.leq (select (arr!580 q!79) (bvsub j!78 #b00000000000000000000000000000001)) (fp #b0 #b10000110001 #b0011111111111111111111111111111111111111111111101100))))))

(assert (=> b!15583 d!5561))

(declare-fun d!5563 () Bool)

(declare-fun e!8893 () Bool)

(assert (=> d!5563 e!8893))

(declare-fun res!12194 () Bool)

(assert (=> d!5563 (=> (not res!12194) (not e!8893))))

(declare-fun lt!8123 () tuple4!426)

(assert (=> d!5563 (= res!12194 (and true true (bvsle #b00000000000000000000000000000000 (_3!344 lt!8123)) (bvsle (_3!344 lt!8123) jz!49) (fp.leq (fp #b0 #b00000000000 #b0000000000000000000000000000000000000000000000000000) (_4!213 lt!8123)) (fp.leq (_4!213 lt!8123) (fp #b0 #b10000110001 #b0100000000000000000000010011111111111111111111111100))))))

(declare-fun e!8895 () tuple4!426)

(assert (=> d!5563 (= lt!8123 e!8895)))

(declare-fun c!1916 () Bool)

(declare-fun lt!8120 () (_ BitVec 32))

(assert (=> d!5563 (= c!1916 (bvsgt lt!8120 #b00000000000000000000000000000000))))

(assert (=> d!5563 (= lt!8120 (bvsub lt!8108 #b00000000000000000000000000000001))))

(declare-fun lt!8122 () (_ FloatingPoint 11 53))

(declare-fun lt!8124 () (_ FloatingPoint 11 53))

(assert (=> d!5563 (= lt!8124 (fp.add roundNearestTiesToEven (select (arr!580 q!79) (bvsub lt!8108 #b00000000000000000000000000000001)) lt!8122))))

(declare-fun lt!8121 () array!1317)

(assert (=> d!5563 (= lt!8121 (array!1318 (store (arr!579 (array!1318 (store (arr!579 iq!146) (bvsub jz!49 j!78) (ite (fp.isNaN (fp.sub roundNearestTiesToEven z!100 (fp.mul roundNearestTiesToEven (fp #b0 #b10000010111 #b0000000000000000000000000000000000000000000000000000) lt!8109))) #b00000000000000000000000000000000 (ite (fp.gt (fp.sub roundNearestTiesToEven z!100 (fp.mul roundNearestTiesToEven (fp #b0 #b10000010111 #b0000000000000000000000000000000000000000000000000000) lt!8109)) ((_ to_fp 11 53) roundTowardZero #b01111111111111111111111111111111)) #b01111111111111111111111111111111 (ite (fp.lt (fp.sub roundNearestTiesToEven z!100 (fp.mul roundNearestTiesToEven (fp #b0 #b10000010111 #b0000000000000000000000000000000000000000000000000000) lt!8109)) ((_ to_fp 11 53) roundTowardZero #b10000000000000000000000000000000)) #b10000000000000000000000000000000 ((_ fp.to_sbv 32) roundTowardZero (fp.sub roundNearestTiesToEven z!100 (fp.mul roundNearestTiesToEven (fp #b0 #b10000010111 #b0000000000000000000000000000000000000000000000000000) lt!8109))))))) (size!579 iq!146))) (bvsub jz!49 lt!8108) (ite (fp.isNaN (fp.sub roundNearestTiesToEven (fp.add roundNearestTiesToEven (select (arr!580 q!79) (bvsub j!78 #b00000000000000000000000000000001)) lt!8109) (fp.mul roundNearestTiesToEven (fp #b0 #b10000010111 #b0000000000000000000000000000000000000000000000000000) lt!8122))) #b00000000000000000000000000000000 (ite (fp.gt (fp.sub roundNearestTiesToEven (fp.add roundNearestTiesToEven (select (arr!580 q!79) (bvsub j!78 #b00000000000000000000000000000001)) lt!8109) (fp.mul roundNearestTiesToEven (fp #b0 #b10000010111 #b0000000000000000000000000000000000000000000000000000) lt!8122)) ((_ to_fp 11 53) roundTowardZero #b01111111111111111111111111111111)) #b01111111111111111111111111111111 (ite (fp.lt (fp.sub roundNearestTiesToEven (fp.add roundNearestTiesToEven (select (arr!580 q!79) (bvsub j!78 #b00000000000000000000000000000001)) lt!8109) (fp.mul roundNearestTiesToEven (fp #b0 #b10000010111 #b0000000000000000000000000000000000000000000000000000) lt!8122)) ((_ to_fp 11 53) roundTowardZero #b10000000000000000000000000000000)) #b10000000000000000000000000000000 ((_ fp.to_sbv 32) roundTowardZero (fp.sub roundNearestTiesToEven (fp.add roundNearestTiesToEven (select (arr!580 q!79) (bvsub j!78 #b00000000000000000000000000000001)) lt!8109) (fp.mul roundNearestTiesToEven (fp #b0 #b10000010111 #b0000000000000000000000000000000000000000000000000000) lt!8122))))))) (size!579 (array!1318 (store (arr!579 iq!146) (bvsub jz!49 j!78) (ite (fp.isNaN (fp.sub roundNearestTiesToEven z!100 (fp.mul roundNearestTiesToEven (fp #b0 #b10000010111 #b0000000000000000000000000000000000000000000000000000) lt!8109))) #b00000000000000000000000000000000 (ite (fp.gt (fp.sub roundNearestTiesToEven z!100 (fp.mul roundNearestTiesToEven (fp #b0 #b10000010111 #b0000000000000000000000000000000000000000000000000000) lt!8109)) ((_ to_fp 11 53) roundTowardZero #b01111111111111111111111111111111)) #b01111111111111111111111111111111 (ite (fp.lt (fp.sub roundNearestTiesToEven z!100 (fp.mul roundNearestTiesToEven (fp #b0 #b10000010111 #b0000000000000000000000000000000000000000000000000000) lt!8109)) ((_ to_fp 11 53) roundTowardZero #b10000000000000000000000000000000)) #b10000000000000000000000000000000 ((_ fp.to_sbv 32) roundTowardZero (fp.sub roundNearestTiesToEven z!100 (fp.mul roundNearestTiesToEven (fp #b0 #b10000010111 #b0000000000000000000000000000000000000000000000000000) lt!8109))))))) (size!579 iq!146)))))))

(assert (=> d!5563 (= lt!8122 ((_ to_fp 11 53) roundNearestTiesToEven (ite (fp.isNaN (fp.mul roundNearestTiesToEven (fp #b0 #b01111100111 #b0000000000000000000000000000000000000000000000000000) (fp.add roundNearestTiesToEven (select (arr!580 q!79) (bvsub j!78 #b00000000000000000000000000000001)) lt!8109))) #b00000000000000000000000000000000 (ite (fp.gt (fp.mul roundNearestTiesToEven (fp #b0 #b01111100111 #b0000000000000000000000000000000000000000000000000000) (fp.add roundNearestTiesToEven (select (arr!580 q!79) (bvsub j!78 #b00000000000000000000000000000001)) lt!8109)) ((_ to_fp 11 53) roundTowardZero #b01111111111111111111111111111111)) #b01111111111111111111111111111111 (ite (fp.lt (fp.mul roundNearestTiesToEven (fp #b0 #b01111100111 #b0000000000000000000000000000000000000000000000000000) (fp.add roundNearestTiesToEven (select (arr!580 q!79) (bvsub j!78 #b00000000000000000000000000000001)) lt!8109)) ((_ to_fp 11 53) roundTowardZero #b10000000000000000000000000000000)) #b10000000000000000000000000000000 ((_ fp.to_sbv 32) roundTowardZero (fp.mul roundNearestTiesToEven (fp #b0 #b01111100111 #b0000000000000000000000000000000000000000000000000000) (fp.add roundNearestTiesToEven (select (arr!580 q!79) (bvsub j!78 #b00000000000000000000000000000001)) lt!8109))))))))))

(declare-fun e!8894 () Bool)

(assert (=> d!5563 e!8894))

(declare-fun res!12196 () Bool)

(assert (=> d!5563 (=> (not res!12196) (not e!8894))))

(assert (=> d!5563 (= res!12196 (and (bvsle #b00000000000000000000000000000000 lt!8108) (bvsle lt!8108 jz!49) (fp.leq (fp #b0 #b00000000000 #b0000000000000000000000000000000000000000000000000000) (fp.add roundNearestTiesToEven (select (arr!580 q!79) (bvsub j!78 #b00000000000000000000000000000001)) lt!8109)) (fp.leq (fp.add roundNearestTiesToEven (select (arr!580 q!79) (bvsub j!78 #b00000000000000000000000000000001)) lt!8109) (fp #b0 #b10000110001 #b0100000000000000000000010011111111111111111111111100))))))

(assert (=> d!5563 (= (computeModuloWhile!0 jz!49 q!79 (array!1318 (store (arr!579 iq!146) (bvsub jz!49 j!78) (ite (fp.isNaN (fp.sub roundNearestTiesToEven z!100 (fp.mul roundNearestTiesToEven (fp #b0 #b10000010111 #b0000000000000000000000000000000000000000000000000000) lt!8109))) #b00000000000000000000000000000000 (ite (fp.gt (fp.sub roundNearestTiesToEven z!100 (fp.mul roundNearestTiesToEven (fp #b0 #b10000010111 #b0000000000000000000000000000000000000000000000000000) lt!8109)) ((_ to_fp 11 53) roundTowardZero #b01111111111111111111111111111111)) #b01111111111111111111111111111111 (ite (fp.lt (fp.sub roundNearestTiesToEven z!100 (fp.mul roundNearestTiesToEven (fp #b0 #b10000010111 #b0000000000000000000000000000000000000000000000000000) lt!8109)) ((_ to_fp 11 53) roundTowardZero #b10000000000000000000000000000000)) #b10000000000000000000000000000000 ((_ fp.to_sbv 32) roundTowardZero (fp.sub roundNearestTiesToEven z!100 (fp.mul roundNearestTiesToEven (fp #b0 #b10000010111 #b0000000000000000000000000000000000000000000000000000) lt!8109))))))) (size!579 iq!146)) lt!8108 (fp.add roundNearestTiesToEven (select (arr!580 q!79) (bvsub j!78 #b00000000000000000000000000000001)) lt!8109)) lt!8123)))

(declare-fun b!15603 () Bool)

(declare-fun res!12195 () Bool)

(assert (=> b!15603 (=> (not res!12195) (not e!8894))))

(assert (=> b!15603 (= res!12195 (iqInv!0 (array!1318 (store (arr!579 iq!146) (bvsub jz!49 j!78) (ite (fp.isNaN (fp.sub roundNearestTiesToEven z!100 (fp.mul roundNearestTiesToEven (fp #b0 #b10000010111 #b0000000000000000000000000000000000000000000000000000) lt!8109))) #b00000000000000000000000000000000 (ite (fp.gt (fp.sub roundNearestTiesToEven z!100 (fp.mul roundNearestTiesToEven (fp #b0 #b10000010111 #b0000000000000000000000000000000000000000000000000000) lt!8109)) ((_ to_fp 11 53) roundTowardZero #b01111111111111111111111111111111)) #b01111111111111111111111111111111 (ite (fp.lt (fp.sub roundNearestTiesToEven z!100 (fp.mul roundNearestTiesToEven (fp #b0 #b10000010111 #b0000000000000000000000000000000000000000000000000000) lt!8109)) ((_ to_fp 11 53) roundTowardZero #b10000000000000000000000000000000)) #b10000000000000000000000000000000 ((_ fp.to_sbv 32) roundTowardZero (fp.sub roundNearestTiesToEven z!100 (fp.mul roundNearestTiesToEven (fp #b0 #b10000010111 #b0000000000000000000000000000000000000000000000000000) lt!8109))))))) (size!579 iq!146))))))

(declare-fun b!15604 () Bool)

(assert (=> b!15604 (= e!8893 (bvsle (_3!344 lt!8123) #b00000000000000000000000000000000))))

(declare-fun b!15605 () Bool)

(assert (=> b!15605 (= e!8894 (bvsgt lt!8108 #b00000000000000000000000000000000))))

(declare-fun b!15606 () Bool)

(assert (=> b!15606 (= e!8895 (computeModuloWhile!0 jz!49 q!79 lt!8121 lt!8120 lt!8124))))

(declare-fun b!15607 () Bool)

(declare-fun Unit!1611 () Unit!1609)

(assert (=> b!15607 (= e!8895 (tuple4!427 Unit!1611 lt!8121 lt!8120 lt!8124))))

(declare-fun b!15608 () Bool)

(declare-fun res!12193 () Bool)

(assert (=> b!15608 (=> (not res!12193) (not e!8893))))

(assert (=> b!15608 (= res!12193 (iqInv!0 (_2!407 lt!8123)))))

(assert (= (and d!5563 res!12196) b!15603))

(assert (= (and b!15603 res!12195) b!15605))

(assert (= (and d!5563 c!1916) b!15606))

(assert (= (and d!5563 (not c!1916)) b!15607))

(assert (= (and d!5563 res!12194) b!15608))

(assert (= (and b!15608 res!12193) b!15604))

(declare-fun m!21739 () Bool)

(assert (=> d!5563 m!21739))

(declare-fun m!21741 () Bool)

(assert (=> d!5563 m!21741))

(declare-fun m!21743 () Bool)

(assert (=> b!15603 m!21743))

(declare-fun m!21745 () Bool)

(assert (=> b!15606 m!21745))

(declare-fun m!21747 () Bool)

(assert (=> b!15608 m!21747))

(assert (=> b!15584 d!5563))

(declare-fun d!5565 () Bool)

(assert (=> d!5565 (= (QInt!0 (select (store (arr!579 iq!146) (bvsub jz!49 j!78) (ite (fp.isNaN (fp.sub roundNearestTiesToEven z!100 (fp.mul roundNearestTiesToEven (fp #b0 #b10000010111 #b0000000000000000000000000000000000000000000000000000) lt!8109))) #b00000000000000000000000000000000 (ite (fp.gt (fp.sub roundNearestTiesToEven z!100 (fp.mul roundNearestTiesToEven (fp #b0 #b10000010111 #b0000000000000000000000000000000000000000000000000000) lt!8109)) ((_ to_fp 11 53) roundTowardZero #b01111111111111111111111111111111)) #b01111111111111111111111111111111 (ite (fp.lt (fp.sub roundNearestTiesToEven z!100 (fp.mul roundNearestTiesToEven (fp #b0 #b10000010111 #b0000000000000000000000000000000000000000000000000000) lt!8109)) ((_ to_fp 11 53) roundTowardZero #b10000000000000000000000000000000)) #b10000000000000000000000000000000 ((_ fp.to_sbv 32) roundTowardZero (fp.sub roundNearestTiesToEven z!100 (fp.mul roundNearestTiesToEven (fp #b0 #b10000010111 #b0000000000000000000000000000000000000000000000000000) lt!8109))))))) (bvsub jz!49 j!78))) (and (bvsle #b00000000000000000000000000000000 (select (store (arr!579 iq!146) (bvsub jz!49 j!78) (ite (fp.isNaN (fp.sub roundNearestTiesToEven z!100 (fp.mul roundNearestTiesToEven (fp #b0 #b10000010111 #b0000000000000000000000000000000000000000000000000000) lt!8109))) #b00000000000000000000000000000000 (ite (fp.gt (fp.sub roundNearestTiesToEven z!100 (fp.mul roundNearestTiesToEven (fp #b0 #b10000010111 #b0000000000000000000000000000000000000000000000000000) lt!8109)) ((_ to_fp 11 53) roundTowardZero #b01111111111111111111111111111111)) #b01111111111111111111111111111111 (ite (fp.lt (fp.sub roundNearestTiesToEven z!100 (fp.mul roundNearestTiesToEven (fp #b0 #b10000010111 #b0000000000000000000000000000000000000000000000000000) lt!8109)) ((_ to_fp 11 53) roundTowardZero #b10000000000000000000000000000000)) #b10000000000000000000000000000000 ((_ fp.to_sbv 32) roundTowardZero (fp.sub roundNearestTiesToEven z!100 (fp.mul roundNearestTiesToEven (fp #b0 #b10000010111 #b0000000000000000000000000000000000000000000000000000) lt!8109))))))) (bvsub jz!49 j!78))) (bvsle (select (store (arr!579 iq!146) (bvsub jz!49 j!78) (ite (fp.isNaN (fp.sub roundNearestTiesToEven z!100 (fp.mul roundNearestTiesToEven (fp #b0 #b10000010111 #b0000000000000000000000000000000000000000000000000000) lt!8109))) #b00000000000000000000000000000000 (ite (fp.gt (fp.sub roundNearestTiesToEven z!100 (fp.mul roundNearestTiesToEven (fp #b0 #b10000010111 #b0000000000000000000000000000000000000000000000000000) lt!8109)) ((_ to_fp 11 53) roundTowardZero #b01111111111111111111111111111111)) #b01111111111111111111111111111111 (ite (fp.lt (fp.sub roundNearestTiesToEven z!100 (fp.mul roundNearestTiesToEven (fp #b0 #b10000010111 #b0000000000000000000000000000000000000000000000000000) lt!8109)) ((_ to_fp 11 53) roundTowardZero #b10000000000000000000000000000000)) #b10000000000000000000000000000000 ((_ fp.to_sbv 32) roundTowardZero (fp.sub roundNearestTiesToEven z!100 (fp.mul roundNearestTiesToEven (fp #b0 #b10000010111 #b0000000000000000000000000000000000000000000000000000) lt!8109))))))) (bvsub jz!49 j!78)) #b00000000111111111111111111111111)))))

(assert (=> b!15589 d!5565))

(declare-fun d!5567 () Bool)

(declare-fun res!12199 () Bool)

(declare-fun e!8898 () Bool)

(assert (=> d!5567 (=> (not res!12199) (not e!8898))))

(assert (=> d!5567 (= res!12199 (= (size!579 iq!146) #b00000000000000000000000000010100))))

(assert (=> d!5567 (= (iqInv!0 iq!146) e!8898)))

(declare-fun b!15611 () Bool)

(declare-fun lambda!692 () Int)

(declare-fun all20Int!0 (array!1317 Int) Bool)

(assert (=> b!15611 (= e!8898 (all20Int!0 iq!146 lambda!692))))

(assert (= (and d!5567 res!12199) b!15611))

(declare-fun m!21749 () Bool)

(assert (=> b!15611 m!21749))

(assert (=> b!15582 d!5567))

(declare-fun d!5569 () Bool)

(declare-fun res!12202 () Bool)

(declare-fun e!8901 () Bool)

(assert (=> d!5569 (=> (not res!12202) (not e!8901))))

(assert (=> d!5569 (= res!12202 (= (size!580 q!79) #b00000000000000000000000000010100))))

(assert (=> d!5569 (= (qInv!0 q!79) e!8901)))

(declare-fun b!15614 () Bool)

(declare-fun lambda!695 () Int)

(declare-fun all20!0 (array!1319 Int) Bool)

(assert (=> b!15614 (= e!8901 (all20!0 q!79 lambda!695))))

(assert (= (and d!5569 res!12202) b!15614))

(declare-fun m!21751 () Bool)

(assert (=> b!15614 m!21751))

(assert (=> b!15590 d!5569))

(declare-fun d!5571 () Bool)

(assert (=> d!5571 (= (array_inv!527 iq!146) (bvsge (size!579 iq!146) #b00000000000000000000000000000000))))

(assert (=> start!2867 d!5571))

(declare-fun d!5573 () Bool)

(assert (=> d!5573 (= (array_inv!528 q!79) (bvsge (size!580 q!79) #b00000000000000000000000000000000))))

(assert (=> start!2867 d!5573))

(check-sat (not b!15611) (not b!15606) (not b!15614) (not b!15603) (not b!15608))
(check-sat)
